7
0, 921, 617, 1061, 570, 1122, 723
921, 0, 720, 650, 402, 635, 613
617, 720, 0, 484, 655, 560, 154
1061, 650, 484, 0, 850, 84, 343
570, 402, 655, 850, 0, 873, 633
1122, 635, 560, 84, 873, 0, 415
723, 613, 154, 343, 633, 415, 0
